mixintcount/benchmarks/random_v2l/5_5_5623.smt2
(set-logic QF_LIA)
(set-info :ran/ran2.smt2)
(set-info :smt-lib-version 2.0)
(declare-fun x1 () Int)
(declare-fun x2 () Int)
(declare-fun x3 () Int)
(declare-fun x4 () Int)
(declare-fun x5 () Int)
(assert (<= (+ (* 8 x1) (* 6 x2) (* 9 x3) (* (- 5) x4) (* 5 x5) ) 4696))
(assert (<= (+ (* 4 x1) (* 10 x2) (* 3 x3) (* 5 x4) (* 3 x5) ) (- 3355)))
(assert (<= (+ (* (- 5) x1) (* (- 3) x2) (* 7 x3) (* (- 10) x4) (* 5 x5) ) 1314))
(assert (<= (+ (* (- 4) x1) (* (- 5) x2) (* (- 4) x3) (* 9 x4) (* (- 8) x5) ) (- 156)))
(assert (<= (+ (* 10 x1) (* (- 9) x2) (* 9 x3) (* (- 10) x4) (* (- 9) x5) ) 4883))
(assert (<= (+ (* 2 x1) (* 7 x2) (* 10 x3) (* (- 1) x4) (* (- 9) x5) ) 1588))
(assert (<= (+ (* (- 1) x1) (* 4 x2) (* 1 x3) (* (- 10) x4) (* (- 2) x5) ) (- 3254)))
(assert (<= (+ (* 3 x1) (* 2 x2) (* 1 x3) (* 0 x4) (* 2 x5) ) 2085))
(assert (<= (+ (* 2 x1) (* 9 x2) (* (- 1) x3) (* 8 x4) (* 5 x5) ) 359))
(assert (<= (+ (* (- 10) x1) (* 2 x2) (* 0 x3) (* 8 x4) (* 3 x5) ) 3269))
(assert (<= (+ (* 1 x1) (* 0 x2) (* 0 x3) (* 0 x4) (* 0 x5) ) 5623))
(assert (<= (+ (* (- 1) x1) (* 0 x2) (* 0 x3) (* 0 x4) (* 0 x5) ) 5623))
(assert (<= (+ (* 0 x1) (* 1 x2) (* 0 x3) (* 0 x4) (* 0 x5) ) 5623))
(assert (<= (+ (* 0 x1) (* (- 1) x2) (* 0 x3) (* 0 x4) (* 0 x5) ) 5623))
(assert (<= (+ (* 0 x1) (* 0 x2) (* 1 x3) (* 0 x4) (* 0 x5) ) 5623))
(assert (<= (+ (* 0 x1) (* 0 x2) (* (- 1) x3) (* 0 x4) (* 0 x5) ) 5623))
(assert (<= (+ (* 0 x1) (* 0 x2) (* 0 x3) (* 1 x4) (* 0 x5) ) 5623))
(assert (<= (+ (* 0 x1) (* 0 x2) (* 0 x3) (* (- 1) x4) (* 0 x5) ) 5623))
(assert (<= (+ (* 0 x1) (* 0 x2) (* 0 x3) (* 0 x4) (* 1 x5) ) 5623))
(assert (<= (+ (* 0 x1) (* 0 x2) (* 0 x3) (* 0 x4) (* (- 1) x5) ) 5623))
