mixintcount/benchmarks/random_v2l/5_5_5623.in
20 7
#	x1	x2	x3	x4	x5;		0 = Real; 1 = Integer
	1	1	1	1	1
1	8	6	9	-5	5	4696
1	4	10	3	5	3	-3355
1	-5	-3	7	-10	5	1314
1	-4	-5	-4	9	-8	-156
1	10	-9	9	-10	-9	4883
1	2	7	10	-1	-9	1588
1	-1	4	1	-10	-2	-3254
1	3	2	1	0	2	2085
1	2	9	-1	8	5	359
1	-10	2	0	8	3	3269
1	1	0	0	0	0	5623
1	-1	0	0	0	0	5623
1	0	1	0	0	0	5623
1	0	-1	0	0	0	5623
1	0	0	1	0	0	5623
1	0	0	-1	0	0	5623
1	0	0	0	1	0	5623
1	0	0	0	-1	0	5623
1	0	0	0	0	1	5623
1	0	0	0	0	-1	5623
